Output/BruteForce/Random_025_03_6.ans
Facilties: 3 4 7 12 22 23 Score: 29
