Output/Exact/Random_025_03_6.lp.out
CPU Time for Parsing input: 0.002587s (0.002587s total since program start)
CPU Time for solving: 1.73067s (1.73325s total since program start)

Value of objective function: 29.00000000
